23 71 
9 79 
13 15 
43 77 
77 82 
42 69 
93 29 
20 56 
73 44 
70 33 
47 77 
99 10 
67 5 
95 37 
42 26 
93 17 
97 55 
96 62 
70 91 
40 99 
73 82 
21 66 
64 41 
23 89 
37 45 
22 37 
23 21 
47 42 
79 94 
79 73 
20 73 
42 70 
28 38 
32 50 
29 24 
1 2 
59 22 
21 75 
16 96 
64 53 
41 86 
90 16 
59 90 
58 90 
84 38 
63 57 
63 57 
79 43 
95 63 
93 76 
